15
-1 657 318 138 825 551 339 467 609 278 440 785 172 568 404 
657 -1 340 630 505 106 322 368 176 527 683 239 486 179 352 
318 340 -1 318 628 235 65 241 303 236 490 500 152 287 216 
138 630 318 -1 717 526 311 522 621 373 302 719 173 509 322 
825 505 628 717 -1 512 565 804 671 864 538 304 685 376 433 
551 106 235 526 512 -1 216 304 169 434 601 296 380 140 266 
339 322 65 311 565 216 -1 296 320 299 443 455 167 238 152 
467 368 241 522 804 304 296 -1 217 218 730 597 350 429 443 
609 176 303 621 671 169 320 217 -1 414 749 416 454 308 418 
278 527 236 373 864 434 299 218 414 -1 641 723 233 518 441 
440 683 490 302 538 601 443 730 749 641 -1 665 408 512 335 
785 239 500 719 304 296 455 597 416 723 665 -1 616 217 397 
172 486 152 173 685 380 167 350 454 233 408 616 -1 399 252 
568 179 287 509 376 140 238 429 308 518 512 217 399 -1 196 
404 352 216 322 433 266 152 443 418 441 335 397 252 196 -1 
